c FILE: trivial2.cnf
c
c DESCRIPTION: Very simple single clause formula.
c
c
p cnf 20 12
-1 6 0
10 -5 0
20 -16 1 0
-13 -9 0
-19 16 -11 0
-4 8 -7 0
10 13 15 18 4 0
-2 17 0
14 3 0
12 -14 -9 0
15 -20 0
-6 -10 5 17 0